SimulationType                MonteCarlo
NumberOfCycles                10000
NumberOfInitializationCycles  0
PrintEvery                    1000
PrintPropertiesEvery          1000
RandomSeed                    386190711

Forcefield                    LinMercado
ChargeMethod                  Ewald
CutOff                        12.8
EwaldPrecision                1e-6

Framework 0
FrameworkName VOGTIV_LinMercado
RemoveAtomNumberCodeFromLabel no
UnitCells 4 2 2
ExternalTemperature 323.0
ExternalPressure 0

Component 0 MoleculeName              CO2
            MoleculeDefinition        ExampleDefinitions
            IdealGasRosenbluthWeight  1.0
            WidomProbability          1.0
            CreateNumberOfMolecules   0
